
Gurobi 7.0.1 (linux64, Python) logging started Tue Jan 17 10:52:31 2017


Gurobi 7.0.1 (linux64, Python) logging started Tue Jan 17 10:54:25 2017


Gurobi 7.0.1 (linux64, Python) logging started Tue Jan 17 11:24:39 2017


Gurobi 7.0.1 (linux64, Python) logging started Wed Jan 18 15:30:43 2017


Gurobi 7.0.1 (linux64, Python) logging started Wed Jan 18 15:31:46 2017


Gurobi 7.0.1 (linux64, Python) logging started Wed Jan 18 15:34:09 2017


Gurobi 7.0.1 (linux64, Python) logging started Wed Jan 18 16:06:09 2017


Gurobi 7.0.1 (linux64, Python) logging started Wed Jan 18 16:11:03 2017


Gurobi 7.0.1 (linux64, Python) logging started Wed Jan 18 16:18:53 2017


Gurobi 7.0.1 (linux64, Python) logging started Wed Jan 18 19:13:27 2017


Gurobi 7.0.1 (linux64, Python) logging started Wed Jan 18 22:17:27 2017


Gurobi 7.0.1 (linux64, Python) logging started Fri Jan 20 09:29:38 2017


Gurobi 7.0.1 (linux64, Python) logging started Fri Jan 20 09:30:16 2017


Gurobi 7.0.1 (linux64, Python) logging started Fri Jan 20 09:33:56 2017


Gurobi 7.0.1 (linux64, Python) logging started Fri Jan 20 10:28:17 2017

